Version identifier: 22.1.1.0 | 2022-11-28 | 9160aff4d
CPXPARAM_ClockType                               1
CPXPARAM_Read_DataCheck                          1
CPXPARAM_Threads                                 1
CPXPARAM_TimeLimit                               7200
CPXPARAM_MIP_Tolerances_AbsMIPGap                0
CPXPARAM_MIP_Tolerances_MIPGap                   0
CPXPARAM_MIP_Tolerances_Integrality              0
Tried aggregator 2 times.
MIP Presolve eliminated 3483 rows and 1 columns.
MIP Presolve modified 3122 coefficients.
Aggregator did 1000 substitutions.
Reduced MIP has 5716 rows, 2999 columns, and 17584 nonzeros.
Reduced MIP has 2999 binaries, 0 generals, 0 SOSs, and 0 indicators.
Presolve time = 0.04 sec. (26.24 ticks)
Found incumbent of value -1834.000000 after 0.08 sec. (51.00 ticks)
Probing time = 0.03 sec. (6.23 ticks)
Tried aggregator 1 time.
Detecting symmetries...
MIP Presolve eliminated 202 rows and 4 columns.
MIP Presolve modified 2 coefficients.
Reduced MIP has 5514 rows, 2995 columns, and 16574 nonzeros.
Reduced MIP has 2995 binaries, 0 generals, 0 SOSs, and 0 indicators.
Presolve time = 0.03 sec. (18.86 ticks)
Probing time = 0.01 sec. (2.65 ticks)
Clique table members: 10551.
MIP emphasis: balance optimality and feasibility.
MIP search method: dynamic search.
Parallel mode: none, using 1 thread.
Root relaxation solution time = 0.28 sec. (193.74 ticks)

        Nodes                                         Cuts/
   Node  Left     Objective  IInf  Best Integer    Best Bound    ItCnt     Gap

*     0+    0                        -1826.0000      500.0000           127.38%
      0     0      200.0000   560    -1826.0000      200.0000     2046  110.95%
*     0+    0                          166.0000      200.0000            20.48%
*     0+    0                          180.0000      200.0000            11.11%
*     0+    0                          200.0000      200.0000             0.00%
      0     0        cutoff            200.0000      200.0000     2046    0.00%
Elapsed time = 1.16 sec. (776.77 ticks, tree = 0.01 MB, solutions = 5)

Root node processing (before b&c):
  Real time             =    1.16 sec. (777.04 ticks)
Sequential b&c:
  Real time             =    0.00 sec. (0.00 ticks)
                          ------------
Total (root+branch&cut) =    1.16 sec. (777.04 ticks)
Solution is feasible.

---------------------
@@@ MIP_optimal
>>> Benchmark sw100-15.cnf k 2 OPT 200 TimeCost 2.0022146701812744 TimeSolve 1.185412883758545 TimeRead 0.008256196975708008 TimeTrans 0.8085455894470215
